\ SCIP STATISTICS
\   Problem name     : DSJC125.9.stablesets
\   Variables        : 524 (524 binary, 0 integer, 0 implicit integer, 0 continuous)
\   Constraints      : 125
\   Obj. scale       : 1
\   Obj. offset      : 0
Minimize
 Obj: +1 B522(3) +1 B0(2) +1 B1(3) +1 B2(3) +1 B3(2) +1 B4(3) +1 B5(2) +1 B6(2) +1 B7(3) +1 B8(2) +1 B9(3)
      +1 B10(3) +1 B11(2) +1 B12(4) +1 B13(3) +1 B14(2) +1 B15(2) +1 B16(3) +1 B17(2) +1 B18(2) +1 B19(2)
      +1 B20(3) +1 B21(2) +1 B22(2) +1 B23(2) +1 B24(2) +1 B25(2) +1 B26(2) +1 B27(2) +1 B28(3) +1 B29(3)
      +1 B30(3) +1 B31(3) +1 B32(3) +1 B33(2) +1 B34(3) +1 B35(3) +1 B36(2) +1 B37(3) +1 B38(3) +1 B39(3)
      +1 B40(3) +1 B41(3) +1 B42(2) +1 B43(2) +1 B44(3) +1 B45(3) +1 B46(2) +1 B47(2) +1 B48(2) +1 B49(3)
      +1 B50(2) +1 B51(2) +1 B52(3) +1 B53(3) +1 B54(3) +1 B55(3) +1 B56(3) +1 B57(2) +1 B58(3) +1 B59(3)
      +1 B60(2) +1 B61(3) +1 B62(3) +1 B63(2) +1 B64(3) +1 B65(3) +1 B66(3) +1 B67(3) +1 B68(3) +1 B69(3)
      +1 B70(3) +1 B71(3) +1 B72(2) +1 B73(2) +1 B74(3) +1 B75(2) +1 B76(2) +1 B77(3) +1 B78(3) +1 B79(3)
      +1 B80(3) +1 B81(3) +1 B82(3) +1 B83(3) +1 B84(3) +1 B85(3) +1 B86(3) +1 B87(2) +1 B88(2) +1 B89(2)
      +1 B90(3) +1 B91(3) +1 B92(3) +1 B93(2) +1 B94(2) +1 B95(3) +1 B96(2) +1 B97(2) +1 B98(2) +1 B99(2)
      +1 B100(2) +1 B101(2) +1 B102(3) +1 B103(2) +1 B104(2) +1 B105(3) +1 B106(2) +1 B107(2) +1 B108(3)
      +1 B109(3) +1 B110(3) +1 B111(2) +1 B112(2) +1 B113(2) +1 B114(3) +1 B115(3) +1 B116(3) +1 B117(2)
      +1 B118(2) +1 B119(3) +1 B120(3) +1 B121(3) +1 B122(3) +1 B123(3) +1 B124(3) +1 B125(3) +1 B126(3)
      +1 B127(3) +1 B128(3) +1 B129(3) +1 B130(3) +1 B131(2) +1 B132(3) +1 B133(3) +1 B134(3) +1 B135(2)
      +1 B136(3) +1 B137(2) +1 B138(2) +1 B139(3) +1 B140(2) +1 B141(3) +1 B142(3) +1 B143(3) +1 B144(3)
      +1 B145(3) +1 B146(3) +1 B147(3) +1 B148(2) +1 B149(3) +1 B150(3) +1 B151(3) +1 B152(3) +1 B153(3)
      +1 B154(3) +1 B155(2) +1 B156(3) +1 B157(3) +1 B158(4) +1 B159(2) +1 B160(3) +1 B161(2) +1 B162(3)
      +1 B163(3) +1 B164(2) +1 B165(2) +1 B166(2) +1 B167(3) +1 B168(3) +1 B169(2) +1 B170(3) +1 B171(2)
      +1 B172(3) +1 B173(2) +1 B174(2) +1 B175(2) +1 B176(2) +1 B177(2) +1 B178(3) +1 B179(2) +1 B180(2)
      +1 B181(2) +1 B182(2) +1 B183(2) +1 B184(2) +1 B185(2) +1 B186(2) +1 B187(2) +1 B188(3) +1 B189(3)
      +1 B190(2) +1 B191(3) +1 B192(2) +1 B193(3) +1 B194(3) +1 B195(3) +1 B196(3) +1 B197(2) +1 B198(2)
      +1 B199(2) +1 B200(3) +1 B201(3) +1 B202(3) +1 B203(2) +1 B204(3) +1 B205(2) +1 B206(3) +1 B207(2)
      +1 B208(2) +1 B209(2) +1 B210(3) +1 B211(2) +1 B212(3) +1 B213(3) +1 B214(3) +1 B215(3) +1 B216(3)
      +1 B217(4) +1 B218(3) +1 B219(3) +1 B220(3) +1 B221(4) +1 B222(3) +1 B223(3) +1 B224(3) +1 B225(3)
      +1 B226(3) +1 B227(4) +1 B228(2) +1 B229(2) +1 B230(3) +1 B231(3) +1 B232(3) +1 B233(2) +1 B234(2)
      +1 B235(3) +1 B236(3) +1 B237(2) +1 B238(3) +1 B239(2) +1 B240(3) +1 B241(2) +1 B242(2) +1 B243(2)
      +1 B244(3) +1 B245(2) +1 B246(3) +1 B247(3) +1 B248(2) +1 B249(3) +1 B250(2) +1 B251(3) +1 B252(3)
      +1 B253(3) +1 B254(3) +1 B255(3) +1 B256(3) +1 B257(3) +1 B258(2) +1 B259(3) +1 B260(3) +1 B261(3)
      +1 B262(2) +1 B263(3) +1 B264(3) +1 B265(3) +1 B266(3) +1 B267(4) +1 B268(3) +1 B269(3) +1 B270(3)
      +1 B271(2) +1 B272(3) +1 B273(3) +1 B274(3) +1 B275(2) +1 B276(2) +1 B277(3) +1 B278(3) +1 B279(3)
      +1 B280(2) +1 B281(2) +1 B282(3) +1 B283(3) +1 B284(2) +1 B285(2) +1 B286(3) +1 B287(3) +1 B288(3)
      +1 B289(3) +1 B290(2) +1 B291(3) +1 B292(2) +1 B293(3) +1 B294(2) +1 B295(2) +1 B296(3) +1 B297(2)
      +1 B298(3) +1 B299(2) +1 B300(2) +1 B301(3) +1 B302(2) +1 B303(3) +1 B304(2) +1 B305(2) +1 B306(2)
      +1 B307(2) +1 B308(2) +1 B309(2) +1 B310(2) +1 B311(2) +1 B312(3) +1 B313(3) +1 B314(2) +1 B315(4)
      +1 B316(2) +1 B317(3) +1 B318(2) +1 B319(3) +1 B320(3) +1 B321(2) +1 B322(3) +1 B323(2) +1 B324(2)
      +1 B325(3) +1 B326(3) +1 B327(2) +1 B328(3) +1 B329(2) +1 B330(2) +1 B331(2) +1 B332(2) +1 B333(3)
      +1 B334(2) +1 B335(2) +1 B336(2) +1 B337(2) +1 B338(3) +1 B339(2) +1 B340(2) +1 B341(3) +1 B342(2)
      +1 B343(2) +1 B344(2) +1 B345(2) +1 B346(2) +1 B347(2) +1 B348(2) +1 B349(2) +1 B350(2) +1 B351(2)
      +1 B352(2) +1 B353(2) +1 B354(2) +1 B355(3) +1 B356(3) +1 B357(3) +1 B358(2) +1 B359(3) +1 B360(3)
      +1 B361(3) +1 B362(3) +1 B363(4) +1 B364(3) +1 B365(3) +1 B366(2) +1 B367(3) +1 B368(3) +1 B369(3)
      +1 B370(3) +1 B371(3) +1 B372(3) +1 B373(2) +1 B374(3) +1 B375(3) +1 B376(2) +1 B377(3) +1 B378(2)
      +1 B379(2) +1 B380(2) +1 B381(2) +1 B382(2) +1 B383(2) +1 B384(2) +1 B385(3) +1 B386(2) +1 B387(3)
      +1 B388(2) +1 B389(2) +1 B390(4) +1 B391(3) +1 B392(2) +1 B393(3) +1 B394(2) +1 B395(3) +1 B396(3)
      +1 B397(3) +1 B398(2) +1 B399(2) +1 B400(2) +1 B401(3) +1 B402(2) +1 B403(2) +1 B404(2) +1 B405(3)
      +1 B406(3) +1 B407(3) +1 B408(2) +1 B409(2) +1 B410(2) +1 B411(2) +1 B412(3) +1 B413(2) +1 B414(3)
      +1 B415(3) +1 B416(3) +1 B417(2) +1 B418(2) +1 B419(3) +1 B420(2) +1 B421(2) +1 B422(3) +1 B423(2)
      +1 B424(3) +1 B425(3) +1 B426(3) +1 B427(3) +1 B428(2) +1 B429(2) +1 B430(2) +1 B431(3) +1 B432(3)
      +1 B433(3) +1 B434(3) +1 B435(2) +1 B436(2) +1 B437(3) +1 B438(3) +1 B439(3) +1 B440(3) +1 B441(2)
      +1 B442(3) +1 B443(2) +1 B444(2) +1 B445(3) +1 B446(3) +1 B447(3) +1 B448(3) +1 B449(3) +1 B450(2)
      +1 B451(3) +1 B452(3) +1 B453(3) +1 B454(3) +1 B455(3) +1 B456(2) +1 B457(3) +1 B458(3) +1 B459(3)
      +1 B460(3) +1 B461(2) +1 B462(2) +1 B463(3) +1 B464(2) +1 B465(2) +1 B466(2) +1 B467(3) +1 B468(3)
      +1 B469(3) +1 B470(3) +1 B471(3) +1 B472(3) +1 B473(3) +1 B474(3) +1 B475(2) +1 B476(2) +1 B477(2)
      +1 B478(3) +1 B479(3) +1 B480(3) +1 B481(3) +1 B482(3) +1 B483(3) +1 B484(3) +1 B485(3) +1 B486(3)
      +1 B487(3) +1 B488(3) +1 B489(3) +1 B490(3) +1 B491(3) +1 B492(2) +1 B493(3) +1 B494(3) +1 B495(3)
      +1 B496(3) +1 B497(3) +1 B498(3) +1 B499(3) +1 B500(3) +1 B501(2) +1 B502(2) +1 B503(3) +1 B504(3)
      +1 B505(2) +1 B506(3) +1 B507(3) +1 B508(2) +1 B509(2) +1 B510(3) +1 B511(3) +1 B512(3) +1 B513(3)
      +1 B514(2) +1 B515(3) +1 B516(2) +1 B517(2) +1 B518(3) +1 B519(3) +1 B520(2) +1 B521(2) +1 B523(2)
Subject to
 R0: +1 B74(3) +1 B75(2) +1 B136(3) +1 B192(2) +1 B300(2) +1 B327(2) +1 B403(2) >= +1
 R1: +1 B21(2) +1 B29(3) +1 B143(3) +1 B163(3) +1 B221(4) +1 B227(4) +1 B323(2) +1 B387(3) +1 B400(2)
  +1 B439(3) +1 B449(3) +1 B454(3) >= +1
 R2: +1 B518(3) +1 B519(3) +1 B520(2) +1 B521(2) +1 B522(3) +1 B523(2) >= +1
 R3: +1 B30(3) +1 B97(2) +1 B109(3) +1 B202(3) +1 B204(3) +1 B344(2) +1 B362(3) +1 B407(3) +1 B471(3)
  +1 B472(3) +1 B515(3) >= +1
 R4: +1 B0(2) +1 B12(4) +1 B13(3) +1 B58(3) +1 B61(3) +1 B72(2) +1 B116(3) +1 B128(3) +1 B200(3) +1 B201(3)
  +1 B253(3) +1 B254(3) +1 B296(3) +1 B301(3) +1 B303(3) +1 B309(2) +1 B341(3) +1 B360(3) +1 B363(4) +1 B369(3)
  >= +1
 R5: +1 B509(2) +1 B510(3) +1 B511(3) +1 B512(3) +1 B513(3) +1 B514(2) +1 B515(3) +1 B516(2) +1 B517(2)
  >= +1
 R6: +1 B44(3) +1 B45(3) +1 B46(2) +1 B47(2) +1 B93(2) +1 B114(3) +1 B273(3) +1 B274(3) +1 B340(2) +1 B358(2)
  +1 B431(3) +1 B513(3) >= +1
 R7: +1 B14(2) +1 B15(2) +1 B74(3) +1 B225(3) +1 B226(3) +1 B267(4) +1 B269(3) +1 B273(3) +1 B294(2) +1 B377(3)
  +1 B463(3) +1 B469(3) +1 B473(3) +1 B474(3) >= +1
 R8: +1 B504(3) +1 B505(2) +1 B506(3) +1 B507(3) +1 B508(2) >= +1
 R9: +1 B497(3) +1 B498(3) +1 B499(3) +1 B500(3) +1 B501(2) +1 B502(2) +1 B503(3) >= +1
 R10: +1 B487(3) +1 B488(3) +1 B489(3) +1 B490(3) +1 B491(3) +1 B492(2) +1 B493(3) +1 B494(3) +1 B495(3)
  +1 B496(3) >= +1
 R11: +1 B478(3) +1 B479(3) +1 B480(3) +1 B481(3) +1 B482(3) +1 B483(3) +1 B484(3) +1 B485(3) +1 B486(3)
  >= +1
 R12: +1 B24(2) +1 B37(3) +1 B38(3) +1 B70(3) +1 B108(3) +1 B117(2) +1 B175(2) +1 B264(3) +1 B329(2) +1 B384(2)
  >= +1
 R13: +1 B62(3) +1 B63(2) +1 B160(3) +1 B216(3) +1 B217(4) +1 B316(2) +1 B404(2) +1 B420(2) +1 B450(2)
  >= +1
 R14: +1 B30(3) +1 B31(3) +1 B32(3) +1 B33(2) +1 B64(3) +1 B81(3) +1 B92(3) +1 B162(3) +1 B163(3) +1 B174(2)
  +1 B204(3) +1 B326(3) +1 B328(3) +1 B407(3) >= +1
 R15: +1 B42(2) +1 B43(2) +1 B67(3) +1 B68(3) +1 B69(3) +1 B88(2) +1 B133(3) +1 B180(2) +1 B211(2) +1 B281(2)
  +1 B298(3) >= +1
 R16: +1 B14(2) +1 B16(3) +1 B102(3) +1 B105(3) +1 B121(3) +1 B122(3) +1 B127(3) +1 B130(3) +1 B150(3)
  +1 B151(3) +1 B183(2) +1 B210(3) +1 B361(3) +1 B393(3) +1 B498(3) +1 B503(3) >= +1
 R17: +1 B36(2) +1 B91(3) +1 B156(3) +1 B164(2) +1 B191(3) +1 B193(3) +1 B196(3) +1 B262(2) +1 B325(3)
  +1 B465(2) >= +1
 R18: +1 B6(2) +1 B7(3) +1 B28(3) +1 B82(3) +1 B243(2) +1 B302(2) +1 B317(3) +1 B319(3) +1 B367(3) +1 B409(2)
  +1 B484(3) +1 B485(3) +1 B486(3) +1 B491(3) +1 B494(3) +1 B496(3) +1 B507(3) >= +1
 R19: +1 B11(2) +1 B20(3) +1 B144(3) +1 B152(3) +1 B170(3) +1 B188(3) +1 B189(3) +1 B308(2) +1 B406(3)
  +1 B414(3) +1 B416(3) +1 B422(3) +1 B427(3) +1 B459(3) +1 B482(3) +1 B495(3) >= +1
 R20: +1 B28(3) +1 B29(3) +1 B82(3) +1 B83(3) +1 B84(3) +1 B137(2) +1 B156(3) +1 B249(3) +1 B275(2) +1 B351(2)
  +1 B432(3) +1 B445(3) +1 B452(3) +1 B453(3) +1 B454(3) >= +1
 R21: +1 B468(3) +1 B469(3) +1 B470(3) +1 B471(3) +1 B472(3) +1 B473(3) +1 B474(3) +1 B475(2) +1 B476(2)
  +1 B477(2) >= +1
 R22: +1 B12(4) +1 B15(2) +1 B17(2) +1 B28(3) +1 B165(2) +1 B194(3) +1 B200(3) +1 B218(3) +1 B220(3) +1 B395(3)
  +1 B448(3) +1 B453(3) >= +1
 R23: +1 B2(3) +1 B41(3) +1 B47(2) +1 B63(2) +1 B65(3) +1 B71(3) +1 B83(3) +1 B86(3) +1 B110(3) +1 B177(2)
  +1 B178(3) +1 B223(3) +1 B231(3) +1 B232(3) +1 B442(3) >= +1
 R24: +1 B1(3) +1 B2(3) +1 B9(3) +1 B33(2) +1 B37(3) +1 B40(3) +1 B41(3) +1 B68(3) +1 B70(3) +1 B71(3)
  +1 B124(3) +1 B125(3) +1 B240(3) +1 B256(3) +1 B346(2) +1 B440(3) +1 B442(3) +1 B506(3) >= +1
 R25: +1 B457(3) +1 B458(3) +1 B459(3) +1 B460(3) +1 B461(2) +1 B462(2) +1 B463(3) +1 B464(2) +1 B465(2)
  +1 B466(2) +1 B467(3) >= +1
 R26: +1 B58(3) +1 B59(3) +1 B60(2) +1 B61(3) +1 B76(2) +1 B107(2) +1 B136(3) +1 B154(3) +1 B257(3) >= +1
 R27: +1 B278(3) +1 B279(3) +1 B280(2) +1 B281(2) +1 B282(3) +1 B283(3) +1 B284(2) +1 B285(2) +1 B286(3)
  +1 B287(3) +1 B288(3) +1 B289(3) +1 B457(3) +1 B458(3) >= +1
 R28: +1 B445(3) +1 B446(3) +1 B447(3) +1 B448(3) +1 B449(3) +1 B450(2) +1 B451(3) +1 B452(3) +1 B453(3)
  +1 B454(3) +1 B455(3) +1 B456(2) >= +1
 R29: +1 B19(2) +1 B43(2) +1 B52(3) +1 B160(3) +1 B187(2) +1 B238(3) +1 B263(3) +1 B306(2) +1 B368(3)
  +1 B375(3) +1 B390(4) +1 B444(2) >= +1
 R30: +1 B435(2) +1 B436(2) +1 B437(3) +1 B438(3) +1 B439(3) +1 B440(3) +1 B441(2) +1 B442(3) +1 B443(2)
  +1 B444(2) >= +1
 R31: +1 B73(2) +1 B215(3) +1 B245(2) +1 B255(3) +1 B357(3) +1 B437(3) >= +1
 R32: +1 B12(4) +1 B13(3) +1 B98(2) +1 B181(2) +1 B255(3) +1 B259(3) +1 B356(3) +1 B357(3) +1 B363(4)
  +1 B370(3) +1 B437(3) +1 B492(2) >= +1
 R33: +1 B428(2) +1 B429(2) +1 B430(2) +1 B431(3) +1 B432(3) +1 B433(3) +1 B434(3) >= +1
 R34: +1 B215(3) +1 B216(3) +1 B217(4) +1 B218(3) +1 B219(3) +1 B220(3) +1 B221(4) +1 B297(2) +1 B497(3)
  >= +1
 R35: +1 B419(3) +1 B420(2) +1 B421(2) +1 B422(3) +1 B423(2) +1 B424(3) +1 B425(3) +1 B426(3) +1 B427(3)
  >= +1
 R36: +1 B411(2) +1 B412(3) +1 B413(2) +1 B414(3) +1 B415(3) +1 B416(3) +1 B417(2) +1 B418(2) >= +1
 R37: +1 B211(2) +1 B212(3) +1 B213(3) +1 B214(3) +1 B370(3) +1 B479(3) +1 B480(3) +1 B481(3) >= +1
 R38: +1 B401(3) +1 B402(2) +1 B403(2) +1 B404(2) +1 B405(3) +1 B406(3) +1 B407(3) +1 B408(2) +1 B409(2)
  +1 B410(2) >= +1
 R39: +1 B97(2) +1 B98(2) +1 B99(2) +1 B100(2) +1 B143(3) +1 B325(3) +1 B379(2) +1 B449(3) >= +1
 R40: +1 B202(3) +1 B203(2) +1 B204(3) +1 B205(2) +1 B206(3) +1 B207(2) +1 B208(2) +1 B209(2) +1 B210(3)
  +1 B419(3) +1 B470(3) +1 B471(3) >= +1
 R41: +1 B26(2) +1 B167(3) +1 B168(3) +1 B199(2) +1 B213(3) +1 B217(4) +1 B221(4) +1 B222(3) +1 B227(4)
  +1 B252(3) +1 B355(3) +1 B367(3) +1 B466(2) +1 B480(3) +1 B485(3) +1 B507(3) >= +1
 R42: +1 B93(2) +1 B94(2) +1 B95(3) +1 B96(2) +1 B222(3) +1 B235(3) +1 B313(3) +1 B402(2) >= +1
 R43: +1 B191(3) +1 B192(2) +1 B193(3) +1 B194(3) +1 B195(3) +1 B196(3) +1 B197(2) +1 B198(2) +1 B199(2)
  +1 B200(3) +1 B201(3) +1 B348(2) +1 B435(2) >= +1
 R44: +1 B1(3) +1 B2(3) +1 B3(2) +1 B9(3) +1 B59(3) +1 B61(3) +1 B124(3) +1 B126(3) +1 B127(3) +1 B128(3)
  +1 B145(3) +1 B147(3) +1 B149(3) +1 B150(3) +1 B152(3) +1 B188(3) +1 B201(3) +1 B386(2) +1 B424(3) +1 B427(3)
  +1 B476(2) >= +1
 R45: +1 B10(3) +1 B11(2) +1 B67(3) +1 B102(3) +1 B122(3) +1 B123(3) +1 B133(3) +1 B139(3) +1 B277(3)
  +1 B333(3) +1 B385(3) +1 B398(2) >= +1
 R46: +1 B10(3) +1 B27(2) +1 B35(3) +1 B40(3) +1 B45(3) +1 B66(3) +1 B123(3) +1 B125(3) +1 B236(3) +1 B240(3)
  +1 B274(3) +1 B277(3) +1 B283(3) +1 B307(2) +1 B372(3) +1 B408(2) >= +1
 R47: +1 B18(2) +1 B46(2) +1 B57(2) +1 B69(3) +1 B100(2) +1 B120(3) +1 B126(3) +1 B228(2) +1 B230(3) +1 B321(2)
  +1 B378(2) +1 B443(2) >= +1
 R48: +1 B394(2) +1 B395(3) +1 B396(3) +1 B397(3) +1 B398(2) +1 B399(2) +1 B400(2) >= +1
 R49: +1 B273(3) +1 B274(3) +1 B275(2) +1 B276(2) +1 B277(3) +1 B468(3) +1 B469(3) >= +1
 R50: +1 B387(3) +1 B388(2) +1 B389(2) +1 B390(4) +1 B391(3) +1 B392(2) +1 B393(3) >= +1
 R51: +1 B22(2) +1 B23(2) +1 B89(2) +1 B120(3) +1 B121(3) +1 B216(3) +1 B219(3) +1 B250(2) +1 B311(2)
  +1 B343(2) +1 B397(3) +1 B461(2) >= +1
 R52: +1 B264(3) +1 B265(3) +1 B266(3) +1 B267(4) +1 B268(3) +1 B269(3) +1 B270(3) +1 B271(2) +1 B272(3)
  +1 B487(3) >= +1
 R53: +1 B255(3) +1 B256(3) +1 B257(3) +1 B258(2) +1 B259(3) +1 B260(3) +1 B261(3) +1 B262(2) +1 B263(3)
  +1 B478(3) >= +1
 R54: +1 B9(3) +1 B59(3) +1 B145(3) +1 B146(3) +1 B154(3) +1 B352(2) +1 B391(3) +1 B424(3) +1 B425(3)
  +1 B426(3) +1 B440(3) +1 B446(3) +1 B455(3) +1 B504(3) +1 B506(3) >= +1
 R55: +1 B379(2) +1 B380(2) +1 B381(2) +1 B382(2) +1 B383(2) +1 B384(2) +1 B385(3) +1 B386(2) >= +1
 R56: +1 B90(3) +1 B91(3) +1 B92(3) +1 B244(3) +1 B314(2) +1 B350(2) +1 B501(2) >= +1
 R57: +1 B370(3) +1 B371(3) +1 B372(3) +1 B373(2) +1 B374(3) +1 B375(3) +1 B376(2) +1 B377(3) +1 B378(2)
  >= +1
 R58: +1 B90(3) +1 B91(3) +1 B193(3) +1 B194(3) +1 B203(2) +1 B218(3) +1 B512(3) +1 B520(2) >= +1
 R59: +1 B37(3) +1 B38(3) +1 B39(3) +1 B40(3) +1 B41(3) +1 B108(3) +1 B109(3) +1 B110(3) +1 B161(2) +1 B317(3)
  +1 B388(2) +1 B451(3) +1 B460(3) +1 B491(3) >= +1
 R60: +1 B8(2) +1 B52(3) +1 B96(2) +1 B172(3) +1 B198(2) +1 B472(3) +1 B479(3) +1 B510(3) +1 B515(3) +1 B519(3)
  >= +1
 R61: +1 B5(2) +1 B23(2) +1 B32(3) +1 B38(3) +1 B39(3) +1 B190(2) +1 B261(3) +1 B287(3) +1 B364(3) +1 B365(3)
  +1 B425(3) +1 B451(3) +1 B455(3) +1 B474(3) >= +1
 R62: +1 B355(3) +1 B356(3) +1 B357(3) +1 B358(2) +1 B359(3) +1 B360(3) +1 B361(3) +1 B362(3) +1 B363(4)
  +1 B364(3) +1 B365(3) +1 B366(2) +1 B367(3) +1 B368(3) +1 B369(3) >= +1
 R63: +1 B10(3) +1 B13(3) +1 B29(3) +1 B51(2) +1 B55(3) +1 B66(3) +1 B84(3) +1 B168(3) +1 B217(4) +1 B221(4)
  +1 B224(3) +1 B227(4) +1 B247(3) +1 B249(3) +1 B252(3) +1 B254(3) +1 B415(3) +1 B432(3) >= +1
 R64: +1 B88(2) +1 B89(2) +1 B153(3) +1 B185(2) +1 B223(3) +1 B224(3) +1 B380(2) >= +1
 R65: +1 B348(2) +1 B349(2) +1 B350(2) +1 B351(2) +1 B352(2) +1 B353(2) +1 B354(2) >= +1
 R66: +1 B112(2) +1 B176(2) +1 B241(2) +1 B268(3) +1 B269(3) +1 B272(3) +1 B288(3) +1 B347(2) +1 B366(2)
  +1 B473(3) +1 B487(3) +1 B516(2) >= +1
 R67: +1 B136(3) +1 B137(2) +1 B138(2) +1 B139(3) +1 B140(2) +1 B141(3) +1 B142(3) +1 B291(3) +1 B505(2)
  +1 B509(2) >= +1
 R68: +1 B36(2) +1 B101(2) +1 B282(3) +1 B283(3) +1 B334(2) +1 B372(3) +1 B394(2) +1 B412(3) +1 B416(3)
  >= +1
 R69: +1 B338(3) +1 B339(2) +1 B340(2) +1 B341(3) +1 B342(2) +1 B343(2) +1 B344(2) +1 B345(2) +1 B346(2)
  +1 B347(2) >= +1
 R70: +1 B53(3) +1 B54(3) +1 B55(3) +1 B56(3) +1 B57(2) +1 B113(2) +1 B244(3) +1 B246(3) +1 B247(3) +1 B401(3)
  +1 B405(3) +1 B406(3) +1 B414(3) +1 B415(3) >= +1
 R71: +1 B24(2) +1 B31(3) +1 B56(3) +1 B64(3) +1 B65(3) +1 B81(3) +1 B85(3) +1 B86(3) +1 B129(3) +1 B162(3)
  +1 B246(3) +1 B251(3) +1 B253(3) +1 B315(4) +1 B320(3) +1 B322(3) +1 B508(2) +1 B511(3) >= +1
 R72: +1 B132(3) +1 B133(3) +1 B134(3) +1 B135(2) +1 B298(3) +1 B339(2) +1 B356(3) >= +1
 R73: +1 B129(3) +1 B130(3) +1 B131(2) +1 B304(2) +1 B412(3) +1 B488(3) >= +1
 R74: +1 B4(3) +1 B79(3) +1 B80(3) +1 B87(2) +1 B139(3) +1 B141(3) +1 B142(3) +1 B229(2) +1 B263(3) +1 B303(3)
  +1 B354(2) +1 B368(3) +1 B369(3) +1 B385(3) +1 B410(2) +1 B456(2) +1 B467(3) >= +1
 R75: +1 B8(2) +1 B48(2) +1 B135(2) +1 B140(2) +1 B147(3) +1 B182(2) +1 B205(2) +1 B220(3) +1 B239(2)
  +1 B260(3) +1 B284(2) >= +1
 R76: +1 B244(3) +1 B245(2) +1 B246(3) +1 B247(3) +1 B248(2) +1 B249(3) +1 B250(2) +1 B251(3) +1 B252(3)
  +1 B253(3) +1 B254(3) +1 B445(3) +1 B446(3) >= +1
 R77: +1 B332(2) +1 B333(3) +1 B334(2) +1 B335(2) +1 B336(2) +1 B337(2) >= +1
 R78: +1 B185(2) +1 B186(2) +1 B187(2) +1 B188(3) +1 B189(3) +1 B190(2) +1 B290(2) +1 B459(3) >= +1
 R79: +1 B7(3) +1 B34(3) +1 B35(3) +1 B44(3) +1 B45(3) +1 B49(3) +1 B62(3) +1 B77(3) +1 B78(3) +1 B79(3)
  +1 B158(4) +1 B206(3) +1 B418(2) +1 B489(3) +1 B493(3) +1 B494(3) +1 B513(3) >= +1
 R80: +1 B67(3) +1 B68(3) +1 B69(3) +1 B70(3) +1 B71(3) +1 B72(2) +1 B230(3) +1 B231(3) +1 B256(3) +1 B429(2)
  +1 B488(3) >= +1
 R81: +1 B52(3) +1 B73(2) +1 B155(2) +1 B172(3) +1 B381(2) +1 B421(2) +1 B430(2) >= +1
 R82: +1 B324(2) +1 B325(3) +1 B326(3) +1 B327(2) +1 B328(3) +1 B329(2) +1 B330(2) +1 B331(2) >= +1
 R83: +1 B313(3) +1 B314(2) +1 B315(4) +1 B316(2) +1 B317(3) +1 B318(2) +1 B319(3) +1 B320(3) +1 B321(2)
  +1 B322(3) +1 B323(2) >= +1
 R84: +1 B20(3) +1 B75(2) +1 B131(2) +1 B166(2) +1 B167(3) +1 B170(3) +1 B184(2) +1 B189(3) +1 B212(3)
  +1 B213(3) +1 B214(3) +1 B286(3) +1 B289(3) +1 B312(3) +1 B353(2) +1 B477(2) +1 B517(2) >= +1
 R85: +1 B1(3) +1 B4(3) +1 B141(3) +1 B149(3) +1 B209(2) +1 B331(2) +1 B392(2) +1 B431(3) +1 B434(3) +1 B467(3)
  +1 B483(3) +1 B486(3) +1 B490(3) +1 B496(3) >= +1
 R86: +1 B48(2) +1 B49(3) +1 B50(2) +1 B51(2) +1 B119(3) +1 B438(3) +1 B468(3) +1 B489(3) +1 B490(3) +1 B521(2)
  >= +1
 R87: +1 B235(3) +1 B236(3) +1 B237(2) +1 B238(3) +1 B239(2) +1 B240(3) +1 B241(2) +1 B242(2) +1 B243(2)
  +1 B518(3) >= +1
 R88: +1 B230(3) +1 B231(3) +1 B232(3) +1 B233(2) +1 B234(2) +1 B324(2) >= +1
 R89: +1 B53(3) +1 B54(3) +1 B55(3) +1 B95(3) +1 B134(3) +1 B197(2) +1 B235(3) +1 B238(3) +1 B374(3) +1 B375(3)
  +1 B390(4) +1 B502(2) +1 B518(3) >= +1
 R90: +1 B119(3) +1 B120(3) +1 B121(3) +1 B122(3) +1 B123(3) +1 B124(3) +1 B125(3) +1 B126(3) +1 B127(3)
  +1 B128(3) +1 B333(3) +1 B413(2) +1 B428(2) >= +1
 R91: +1 B178(3) +1 B179(2) +1 B180(2) +1 B181(2) +1 B182(2) +1 B183(2) +1 B184(2) +1 B338(3) +1 B401(3)
  >= +1
 R92: +1 B222(3) +1 B223(3) +1 B224(3) +1 B225(3) +1 B226(3) +1 B227(4) +1 B228(2) +1 B229(2) +1 B387(3)
  >= +1
 R93: +1 B21(2) +1 B58(3) +1 B257(3) +1 B301(3) +1 B371(3) +1 B462(2) +1 B470(3) +1 B478(3) >= +1
 R94: +1 B310(2) +1 B311(2) +1 B312(3) >= +1
 R95: +1 B81(3) +1 B82(3) +1 B83(3) +1 B84(3) +1 B85(3) +1 B86(3) +1 B87(2) +1 B292(2) +1 B310(2) +1 B326(3)
  +1 B371(3) >= +1
 R96: +1 B49(3) +1 B78(3) +1 B119(3) +1 B158(4) +1 B171(2) +1 B226(3) +1 B242(2) +1 B267(4) +1 B270(3)
  +1 B279(3) +1 B405(3) +1 B458(3) +1 B460(3) +1 B463(3) >= +1
 R97: +1 B94(2) +1 B115(3) +1 B116(3) +1 B338(3) +1 B341(3) +1 B359(3) +1 B360(3) +1 B373(2) +1 B439(3)
  +1 B482(3) >= +1
 R98: +1 B0(2) +1 B62(3) +1 B74(3) +1 B99(2) +1 B225(3) +1 B260(3) +1 B374(3) +1 B377(3) +1 B399(2) +1 B493(3)
  +1 B495(3) >= +1
 R99: +1 B113(2) +1 B114(3) +1 B115(3) +1 B116(3) +1 B117(2) +1 B118(2) +1 B280(2) +1 B349(2) +1 B500(3)
  >= +1
 R100: +1 B304(2) +1 B305(2) +1 B306(2) +1 B307(2) +1 B308(2) +1 B309(2) >= +1
 R101: +1 B172(3) +1 B173(2) +1 B174(2) +1 B175(2) +1 B176(2) +1 B177(2) +1 B447(3) +1 B448(3) +1 B519(3)
  >= +1
 R102: +1 B12(4) +1 B39(3) +1 B42(2) +1 B50(2) +1 B53(3) +1 B208(2) +1 B259(3) +1 B261(3) +1 B296(3) +1 B330(2)
  +1 B363(4) +1 B364(3) >= +1
 R103: +1 B76(2) +1 B77(3) +1 B78(3) +1 B79(3) +1 B80(3) +1 B132(3) +1 B159(2) +1 B179(2) +1 B267(4) >= +1
 R104: +1 B106(2) +1 B115(3) +1 B142(3) +1 B169(2) +1 B215(3) +1 B219(3) +1 B291(3) +1 B293(3) +1 B305(2)
  +1 B396(3) +1 B397(3) +1 B497(3) +1 B499(3) +1 B500(3) >= +1
 R105: +1 B297(2) +1 B298(3) +1 B299(2) +1 B300(2) +1 B301(3) +1 B302(2) +1 B303(3) >= +1
 R106: +1 B64(3) +1 B65(3) +1 B66(3) +1 B129(3) +1 B232(3) +1 B236(3) +1 B315(4) +1 B510(3) +1 B511(3)
  >= +1
 R107: +1 B290(2) +1 B291(3) +1 B292(2) +1 B293(3) +1 B294(2) +1 B295(2) +1 B296(3) >= +1
 R108: +1 B167(3) +1 B168(3) +1 B169(2) +1 B170(3) +1 B171(2) +1 B355(3) +1 B436(2) >= +1
 R109: +1 B25(2) +1 B26(2) +1 B27(2) +1 B111(2) +1 B293(3) +1 B335(2) +1 B389(2) +1 B395(3) +1 B396(3)
  +1 B417(2) +1 B433(3) +1 B514(2) >= +1
 R110: +1 B159(2) +1 B160(3) +1 B161(2) +1 B162(3) +1 B163(3) +1 B164(2) +1 B165(2) +1 B166(2) +1 B332(2)
  +1 B411(2) >= +1
 R111: +1 B237(2) +1 B282(3) +1 B342(2) +1 B383(2) +1 B438(3) +1 B457(3) >= +1
 R112: +1 B4(3) +1 B16(3) +1 B80(3) +1 B153(3) +1 B157(3) +1 B278(3) +1 B318(2) +1 B433(3) +1 B434(3)
  +1 B441(2) +1 B483(3) +1 B522(3) >= +1
 R113: +1 B153(3) +1 B154(3) +1 B155(2) +1 B156(3) +1 B157(3) +1 B158(4) +1 B278(3) +1 B279(3) +1 B504(3)
  >= +1
 R114: +1 B7(3) +1 B34(3) +1 B44(3) +1 B104(2) +1 B114(3) +1 B158(4) +1 B195(3) +1 B270(3) +1 B315(4)
  +1 B319(3) +1 B484(3) >= +1
 R115: +1 B107(2) +1 B108(3) +1 B109(3) +1 B110(3) +1 B111(2) +1 B112(2) +1 B178(3) +1 B191(3) +1 B202(3)
  >= +1
 R116: +1 B3(2) +1 B30(3) +1 B31(3) +1 B32(3) +1 B54(3) +1 B56(3) +1 B271(2) +1 B286(3) +1 B287(3) +1 B312(3)
  +1 B320(3) +1 B336(2) +1 B359(3) +1 B362(3) +1 B365(3) >= +1
 R117: +1 B34(3) +1 B35(3) +1 B77(3) +1 B132(3) +1 B173(2) +1 B186(2) +1 B195(3) +1 B196(3) +1 B248(2)
  +1 B382(2) >= +1
 R118: +1 B18(2) +1 B19(2) +1 B20(3) +1 B25(2) +1 B85(3) +1 B138(2) +1 B144(3) +1 B212(3) +1 B251(3) +1 B265(3)
  +1 B268(3) +1 B276(2) +1 B422(3) >= +1
 R119: +1 B101(2) +1 B102(3) +1 B103(2) +1 B104(2) +1 B105(3) +1 B106(2) +1 B299(2) +1 B447(3) >= +1
 R120: +1 B22(2) +1 B90(3) +1 B92(3) +1 B285(2) +1 B328(3) +1 B452(3) +1 B475(2) +1 B512(3) >= +1
 R121: +1 B5(2) +1 B6(2) +1 B60(2) +1 B103(2) +1 B118(2) +1 B148(2) +1 B207(2) +1 B234(2) +1 B295(2) +1 B345(2)
  +1 B464(2) +1 B523(2) >= +1
 R122: +1 B16(3) +1 B17(2) +1 B130(3) +1 B157(3) +1 B233(2) +1 B258(2) +1 B361(3) +1 B376(2) +1 B423(2)
  +1 B503(3) +1 B522(3) >= +1
 R123: +1 B143(3) +1 B144(3) +1 B145(3) +1 B146(3) +1 B147(3) +1 B148(2) +1 B149(3) +1 B150(3) +1 B151(3)
  +1 B152(3) +1 B264(3) +1 B265(3) +1 B266(3) +1 B498(3) +1 B499(3) >= +1
 R124: +1 B95(3) +1 B105(3) +1 B134(3) +1 B146(3) +1 B151(3) +1 B206(3) +1 B210(3) +1 B214(3) +1 B266(3)
  +1 B272(3) +1 B288(3) +1 B289(3) +1 B313(3) +1 B322(3) +1 B337(2) +1 B390(4) +1 B391(3) +1 B393(3) +1 B419(3)
  +1 B426(3) +1 B481(3) >= +1
Bounds
 0 <= B522(3) <= 1
 0 <= B0(2) <= 1
 0 <= B1(3) <= 1
 0 <= B2(3) <= 1
 0 <= B3(2) <= 1
 0 <= B4(3) <= 1
 0 <= B5(2) <= 1
 0 <= B6(2) <= 1
 0 <= B7(3) <= 1
 0 <= B8(2) <= 1
 0 <= B9(3) <= 1
 0 <= B10(3) <= 1
 0 <= B11(2) <= 1
 0 <= B12(4) <= 1
 0 <= B13(3) <= 1
 0 <= B14(2) <= 1
 0 <= B15(2) <= 1
 0 <= B16(3) <= 1
 0 <= B17(2) <= 1
 0 <= B18(2) <= 1
 0 <= B19(2) <= 1
 0 <= B20(3) <= 1
 0 <= B21(2) <= 1
 0 <= B22(2) <= 1
 0 <= B23(2) <= 1
 0 <= B24(2) <= 1
 0 <= B25(2) <= 1
 0 <= B26(2) <= 1
 0 <= B27(2) <= 1
 0 <= B28(3) <= 1
 0 <= B29(3) <= 1
 0 <= B30(3) <= 1
 0 <= B31(3) <= 1
 0 <= B32(3) <= 1
 0 <= B33(2) <= 1
 0 <= B34(3) <= 1
 0 <= B35(3) <= 1
 0 <= B36(2) <= 1
 0 <= B37(3) <= 1
 0 <= B38(3) <= 1
 0 <= B39(3) <= 1
 0 <= B40(3) <= 1
 0 <= B41(3) <= 1
 0 <= B42(2) <= 1
 0 <= B43(2) <= 1
 0 <= B44(3) <= 1
 0 <= B45(3) <= 1
 0 <= B46(2) <= 1
 0 <= B47(2) <= 1
 0 <= B48(2) <= 1
 0 <= B49(3) <= 1
 0 <= B50(2) <= 1
 0 <= B51(2) <= 1
 0 <= B52(3) <= 1
 0 <= B53(3) <= 1
 0 <= B54(3) <= 1
 0 <= B55(3) <= 1
 0 <= B56(3) <= 1
 0 <= B57(2) <= 1
 0 <= B58(3) <= 1
 0 <= B59(3) <= 1
 0 <= B60(2) <= 1
 0 <= B61(3) <= 1
 0 <= B62(3) <= 1
 0 <= B63(2) <= 1
 0 <= B64(3) <= 1
 0 <= B65(3) <= 1
 0 <= B66(3) <= 1
 0 <= B67(3) <= 1
 0 <= B68(3) <= 1
 0 <= B69(3) <= 1
 0 <= B70(3) <= 1
 0 <= B71(3) <= 1
 0 <= B72(2) <= 1
 0 <= B73(2) <= 1
 0 <= B74(3) <= 1
 0 <= B75(2) <= 1
 0 <= B76(2) <= 1
 0 <= B77(3) <= 1
 0 <= B78(3) <= 1
 0 <= B79(3) <= 1
 0 <= B80(3) <= 1
 0 <= B81(3) <= 1
 0 <= B82(3) <= 1
 0 <= B83(3) <= 1
 0 <= B84(3) <= 1
 0 <= B85(3) <= 1
 0 <= B86(3) <= 1
 0 <= B87(2) <= 1
 0 <= B88(2) <= 1
 0 <= B89(2) <= 1
 0 <= B90(3) <= 1
 0 <= B91(3) <= 1
 0 <= B92(3) <= 1
 0 <= B93(2) <= 1
 0 <= B94(2) <= 1
 0 <= B95(3) <= 1
 0 <= B96(2) <= 1
 0 <= B97(2) <= 1
 0 <= B98(2) <= 1
 0 <= B99(2) <= 1
 0 <= B100(2) <= 1
 0 <= B101(2) <= 1
 0 <= B102(3) <= 1
 0 <= B103(2) <= 1
 0 <= B104(2) <= 1
 0 <= B105(3) <= 1
 0 <= B106(2) <= 1
 0 <= B107(2) <= 1
 0 <= B108(3) <= 1
 0 <= B109(3) <= 1
 0 <= B110(3) <= 1
 0 <= B111(2) <= 1
 0 <= B112(2) <= 1
 0 <= B113(2) <= 1
 0 <= B114(3) <= 1
 0 <= B115(3) <= 1
 0 <= B116(3) <= 1
 0 <= B117(2) <= 1
 0 <= B118(2) <= 1
 0 <= B119(3) <= 1
 0 <= B120(3) <= 1
 0 <= B121(3) <= 1
 0 <= B122(3) <= 1
 0 <= B123(3) <= 1
 0 <= B124(3) <= 1
 0 <= B125(3) <= 1
 0 <= B126(3) <= 1
 0 <= B127(3) <= 1
 0 <= B128(3) <= 1
 0 <= B129(3) <= 1
 0 <= B130(3) <= 1
 0 <= B131(2) <= 1
 0 <= B132(3) <= 1
 0 <= B133(3) <= 1
 0 <= B134(3) <= 1
 0 <= B135(2) <= 1
 0 <= B136(3) <= 1
 0 <= B137(2) <= 1
 0 <= B138(2) <= 1
 0 <= B139(3) <= 1
 0 <= B140(2) <= 1
 0 <= B141(3) <= 1
 0 <= B142(3) <= 1
 0 <= B143(3) <= 1
 0 <= B144(3) <= 1
 0 <= B145(3) <= 1
 0 <= B146(3) <= 1
 0 <= B147(3) <= 1
 0 <= B148(2) <= 1
 0 <= B149(3) <= 1
 0 <= B150(3) <= 1
 0 <= B151(3) <= 1
 0 <= B152(3) <= 1
 0 <= B153(3) <= 1
 0 <= B154(3) <= 1
 0 <= B155(2) <= 1
 0 <= B156(3) <= 1
 0 <= B157(3) <= 1
 0 <= B158(4) <= 1
 0 <= B159(2) <= 1
 0 <= B160(3) <= 1
 0 <= B161(2) <= 1
 0 <= B162(3) <= 1
 0 <= B163(3) <= 1
 0 <= B164(2) <= 1
 0 <= B165(2) <= 1
 0 <= B166(2) <= 1
 0 <= B167(3) <= 1
 0 <= B168(3) <= 1
 0 <= B169(2) <= 1
 0 <= B170(3) <= 1
 0 <= B171(2) <= 1
 0 <= B172(3) <= 1
 0 <= B173(2) <= 1
 0 <= B174(2) <= 1
 0 <= B175(2) <= 1
 0 <= B176(2) <= 1
 0 <= B177(2) <= 1
 0 <= B178(3) <= 1
 0 <= B179(2) <= 1
 0 <= B180(2) <= 1
 0 <= B181(2) <= 1
 0 <= B182(2) <= 1
 0 <= B183(2) <= 1
 0 <= B184(2) <= 1
 0 <= B185(2) <= 1
 0 <= B186(2) <= 1
 0 <= B187(2) <= 1
 0 <= B188(3) <= 1
 0 <= B189(3) <= 1
 0 <= B190(2) <= 1
 0 <= B191(3) <= 1
 0 <= B192(2) <= 1
 0 <= B193(3) <= 1
 0 <= B194(3) <= 1
 0 <= B195(3) <= 1
 0 <= B196(3) <= 1
 0 <= B197(2) <= 1
 0 <= B198(2) <= 1
 0 <= B199(2) <= 1
 0 <= B200(3) <= 1
 0 <= B201(3) <= 1
 0 <= B202(3) <= 1
 0 <= B203(2) <= 1
 0 <= B204(3) <= 1
 0 <= B205(2) <= 1
 0 <= B206(3) <= 1
 0 <= B207(2) <= 1
 0 <= B208(2) <= 1
 0 <= B209(2) <= 1
 0 <= B210(3) <= 1
 0 <= B211(2) <= 1
 0 <= B212(3) <= 1
 0 <= B213(3) <= 1
 0 <= B214(3) <= 1
 0 <= B215(3) <= 1
 0 <= B216(3) <= 1
 0 <= B217(4) <= 1
 0 <= B218(3) <= 1
 0 <= B219(3) <= 1
 0 <= B220(3) <= 1
 0 <= B221(4) <= 1
 0 <= B222(3) <= 1
 0 <= B223(3) <= 1
 0 <= B224(3) <= 1
 0 <= B225(3) <= 1
 0 <= B226(3) <= 1
 0 <= B227(4) <= 1
 0 <= B228(2) <= 1
 0 <= B229(2) <= 1
 0 <= B230(3) <= 1
 0 <= B231(3) <= 1
 0 <= B232(3) <= 1
 0 <= B233(2) <= 1
 0 <= B234(2) <= 1
 0 <= B235(3) <= 1
 0 <= B236(3) <= 1
 0 <= B237(2) <= 1
 0 <= B238(3) <= 1
 0 <= B239(2) <= 1
 0 <= B240(3) <= 1
 0 <= B241(2) <= 1
 0 <= B242(2) <= 1
 0 <= B243(2) <= 1
 0 <= B244(3) <= 1
 0 <= B245(2) <= 1
 0 <= B246(3) <= 1
 0 <= B247(3) <= 1
 0 <= B248(2) <= 1
 0 <= B249(3) <= 1
 0 <= B250(2) <= 1
 0 <= B251(3) <= 1
 0 <= B252(3) <= 1
 0 <= B253(3) <= 1
 0 <= B254(3) <= 1
 0 <= B255(3) <= 1
 0 <= B256(3) <= 1
 0 <= B257(3) <= 1
 0 <= B258(2) <= 1
 0 <= B259(3) <= 1
 0 <= B260(3) <= 1
 0 <= B261(3) <= 1
 0 <= B262(2) <= 1
 0 <= B263(3) <= 1
 0 <= B264(3) <= 1
 0 <= B265(3) <= 1
 0 <= B266(3) <= 1
 0 <= B267(4) <= 1
 0 <= B268(3) <= 1
 0 <= B269(3) <= 1
 0 <= B270(3) <= 1
 0 <= B271(2) <= 1
 0 <= B272(3) <= 1
 0 <= B273(3) <= 1
 0 <= B274(3) <= 1
 0 <= B275(2) <= 1
 0 <= B276(2) <= 1
 0 <= B277(3) <= 1
 0 <= B278(3) <= 1
 0 <= B279(3) <= 1
 0 <= B280(2) <= 1
 0 <= B281(2) <= 1
 0 <= B282(3) <= 1
 0 <= B283(3) <= 1
 0 <= B284(2) <= 1
 0 <= B285(2) <= 1
 0 <= B286(3) <= 1
 0 <= B287(3) <= 1
 0 <= B288(3) <= 1
 0 <= B289(3) <= 1
 0 <= B290(2) <= 1
 0 <= B291(3) <= 1
 0 <= B292(2) <= 1
 0 <= B293(3) <= 1
 0 <= B294(2) <= 1
 0 <= B295(2) <= 1
 0 <= B296(3) <= 1
 0 <= B297(2) <= 1
 0 <= B298(3) <= 1
 0 <= B299(2) <= 1
 0 <= B300(2) <= 1
 0 <= B301(3) <= 1
 0 <= B302(2) <= 1
 0 <= B303(3) <= 1
 0 <= B304(2) <= 1
 0 <= B305(2) <= 1
 0 <= B306(2) <= 1
 0 <= B307(2) <= 1
 0 <= B308(2) <= 1
 0 <= B309(2) <= 1
 0 <= B310(2) <= 1
 0 <= B311(2) <= 1
 0 <= B312(3) <= 1
 0 <= B313(3) <= 1
 0 <= B314(2) <= 1
 0 <= B315(4) <= 1
 0 <= B316(2) <= 1
 0 <= B317(3) <= 1
 0 <= B318(2) <= 1
 0 <= B319(3) <= 1
 0 <= B320(3) <= 1
 0 <= B321(2) <= 1
 0 <= B322(3) <= 1
 0 <= B323(2) <= 1
 0 <= B324(2) <= 1
 0 <= B325(3) <= 1
 0 <= B326(3) <= 1
 0 <= B327(2) <= 1
 0 <= B328(3) <= 1
 0 <= B329(2) <= 1
 0 <= B330(2) <= 1
 0 <= B331(2) <= 1
 0 <= B332(2) <= 1
 0 <= B333(3) <= 1
 0 <= B334(2) <= 1
 0 <= B335(2) <= 1
 0 <= B336(2) <= 1
 0 <= B337(2) <= 1
 0 <= B338(3) <= 1
 0 <= B339(2) <= 1
 0 <= B340(2) <= 1
 0 <= B341(3) <= 1
 0 <= B342(2) <= 1
 0 <= B343(2) <= 1
 0 <= B344(2) <= 1
 0 <= B345(2) <= 1
 0 <= B346(2) <= 1
 0 <= B347(2) <= 1
 0 <= B348(2) <= 1
 0 <= B349(2) <= 1
 0 <= B350(2) <= 1
 0 <= B351(2) <= 1
 0 <= B352(2) <= 1
 0 <= B353(2) <= 1
 0 <= B354(2) <= 1
 0 <= B355(3) <= 1
 0 <= B356(3) <= 1
 0 <= B357(3) <= 1
 0 <= B358(2) <= 1
 0 <= B359(3) <= 1
 0 <= B360(3) <= 1
 0 <= B361(3) <= 1
 0 <= B362(3) <= 1
 0 <= B363(4) <= 1
 0 <= B364(3) <= 1
 0 <= B365(3) <= 1
 0 <= B366(2) <= 1
 0 <= B367(3) <= 1
 0 <= B368(3) <= 1
 0 <= B369(3) <= 1
 0 <= B370(3) <= 1
 0 <= B371(3) <= 1
 0 <= B372(3) <= 1
 0 <= B373(2) <= 1
 0 <= B374(3) <= 1
 0 <= B375(3) <= 1
 0 <= B376(2) <= 1
 0 <= B377(3) <= 1
 0 <= B378(2) <= 1
 0 <= B379(2) <= 1
 0 <= B380(2) <= 1
 0 <= B381(2) <= 1
 0 <= B382(2) <= 1
 0 <= B383(2) <= 1
 0 <= B384(2) <= 1
 0 <= B385(3) <= 1
 0 <= B386(2) <= 1
 0 <= B387(3) <= 1
 0 <= B388(2) <= 1
 0 <= B389(2) <= 1
 0 <= B390(4) <= 1
 0 <= B391(3) <= 1
 0 <= B392(2) <= 1
 0 <= B393(3) <= 1
 0 <= B394(2) <= 1
 0 <= B395(3) <= 1
 0 <= B396(3) <= 1
 0 <= B397(3) <= 1
 0 <= B398(2) <= 1
 0 <= B399(2) <= 1
 0 <= B400(2) <= 1
 0 <= B401(3) <= 1
 0 <= B402(2) <= 1
 0 <= B403(2) <= 1
 0 <= B404(2) <= 1
 0 <= B405(3) <= 1
 0 <= B406(3) <= 1
 0 <= B407(3) <= 1
 0 <= B408(2) <= 1
 0 <= B409(2) <= 1
 0 <= B410(2) <= 1
 0 <= B411(2) <= 1
 0 <= B412(3) <= 1
 0 <= B413(2) <= 1
 0 <= B414(3) <= 1
 0 <= B415(3) <= 1
 0 <= B416(3) <= 1
 0 <= B417(2) <= 1
 0 <= B418(2) <= 1
 0 <= B419(3) <= 1
 0 <= B420(2) <= 1
 0 <= B421(2) <= 1
 0 <= B422(3) <= 1
 0 <= B423(2) <= 1
 0 <= B424(3) <= 1
 0 <= B425(3) <= 1
 0 <= B426(3) <= 1
 0 <= B427(3) <= 1
 0 <= B428(2) <= 1
 0 <= B429(2) <= 1
 0 <= B430(2) <= 1
 0 <= B431(3) <= 1
 0 <= B432(3) <= 1
 0 <= B433(3) <= 1
 0 <= B434(3) <= 1
 0 <= B435(2) <= 1
 0 <= B436(2) <= 1
 0 <= B437(3) <= 1
 0 <= B438(3) <= 1
 0 <= B439(3) <= 1
 0 <= B440(3) <= 1
 0 <= B441(2) <= 1
 0 <= B442(3) <= 1
 0 <= B443(2) <= 1
 0 <= B444(2) <= 1
 0 <= B445(3) <= 1
 0 <= B446(3) <= 1
 0 <= B447(3) <= 1
 0 <= B448(3) <= 1
 0 <= B449(3) <= 1
 0 <= B450(2) <= 1
 0 <= B451(3) <= 1
 0 <= B452(3) <= 1
 0 <= B453(3) <= 1
 0 <= B454(3) <= 1
 0 <= B455(3) <= 1
 0 <= B456(2) <= 1
 0 <= B457(3) <= 1
 0 <= B458(3) <= 1
 0 <= B459(3) <= 1
 0 <= B460(3) <= 1
 0 <= B461(2) <= 1
 0 <= B462(2) <= 1
 0 <= B463(3) <= 1
 0 <= B464(2) <= 1
 0 <= B465(2) <= 1
 0 <= B466(2) <= 1
 0 <= B467(3) <= 1
 0 <= B468(3) <= 1
 0 <= B469(3) <= 1
 0 <= B470(3) <= 1
 0 <= B471(3) <= 1
 0 <= B472(3) <= 1
 0 <= B473(3) <= 1
 0 <= B474(3) <= 1
 0 <= B475(2) <= 1
 0 <= B476(2) <= 1
 0 <= B477(2) <= 1
 0 <= B478(3) <= 1
 0 <= B479(3) <= 1
 0 <= B480(3) <= 1
 0 <= B481(3) <= 1
 0 <= B482(3) <= 1
 0 <= B483(3) <= 1
 0 <= B484(3) <= 1
 0 <= B485(3) <= 1
 0 <= B486(3) <= 1
 0 <= B487(3) <= 1
 0 <= B488(3) <= 1
 0 <= B489(3) <= 1
 0 <= B490(3) <= 1
 0 <= B491(3) <= 1
 0 <= B492(2) <= 1
 0 <= B493(3) <= 1
 0 <= B494(3) <= 1
 0 <= B495(3) <= 1
 0 <= B496(3) <= 1
 0 <= B497(3) <= 1
 0 <= B498(3) <= 1
 0 <= B499(3) <= 1
 0 <= B500(3) <= 1
 0 <= B501(2) <= 1
 0 <= B502(2) <= 1
 0 <= B503(3) <= 1
 0 <= B504(3) <= 1
 0 <= B505(2) <= 1
 0 <= B506(3) <= 1
 0 <= B507(3) <= 1
 0 <= B508(2) <= 1
 0 <= B509(2) <= 1
 0 <= B510(3) <= 1
 0 <= B511(3) <= 1
 0 <= B512(3) <= 1
 0 <= B513(3) <= 1
 0 <= B514(2) <= 1
 0 <= B515(3) <= 1
 0 <= B516(2) <= 1
 0 <= B517(2) <= 1
 0 <= B518(3) <= 1
 0 <= B519(3) <= 1
 0 <= B520(2) <= 1
 0 <= B521(2) <= 1
 0 <= B523(2) <= 1
Binaries
 B522(3) B0(2) B1(3) B2(3) B3(2) B4(3) B5(2) B6(2) B7(3) B8(2) B9(3) B10(3) B11(2) B12(4) B13(3) B14(2)
 B15(2) B16(3) B17(2) B18(2) B19(2) B20(3) B21(2) B22(2) B23(2) B24(2) B25(2) B26(2) B27(2) B28(3) B29(3)
 B30(3) B31(3) B32(3) B33(2) B34(3) B35(3) B36(2) B37(3) B38(3) B39(3) B40(3) B41(3) B42(2) B43(2) B44(3)
 B45(3) B46(2) B47(2) B48(2) B49(3) B50(2) B51(2) B52(3) B53(3) B54(3) B55(3) B56(3) B57(2) B58(3) B59(3)
 B60(2) B61(3) B62(3) B63(2) B64(3) B65(3) B66(3) B67(3) B68(3) B69(3) B70(3) B71(3) B72(2) B73(2) B74(3)
 B75(2) B76(2) B77(3) B78(3) B79(3) B80(3) B81(3) B82(3) B83(3) B84(3) B85(3) B86(3) B87(2) B88(2) B89(2)
 B90(3) B91(3) B92(3) B93(2) B94(2) B95(3) B96(2) B97(2) B98(2) B99(2) B100(2) B101(2) B102(3) B103(2)
 B104(2) B105(3) B106(2) B107(2) B108(3) B109(3) B110(3) B111(2) B112(2) B113(2) B114(3) B115(3) B116(3)
 B117(2) B118(2) B119(3) B120(3) B121(3) B122(3) B123(3) B124(3) B125(3) B126(3) B127(3) B128(3) B129(3)
 B130(3) B131(2) B132(3) B133(3) B134(3) B135(2) B136(3) B137(2) B138(2) B139(3) B140(2) B141(3) B142(3)
 B143(3) B144(3) B145(3) B146(3) B147(3) B148(2) B149(3) B150(3) B151(3) B152(3) B153(3) B154(3) B155(2)
 B156(3) B157(3) B158(4) B159(2) B160(3) B161(2) B162(3) B163(3) B164(2) B165(2) B166(2) B167(3) B168(3)
 B169(2) B170(3) B171(2) B172(3) B173(2) B174(2) B175(2) B176(2) B177(2) B178(3) B179(2) B180(2) B181(2)
 B182(2) B183(2) B184(2) B185(2) B186(2) B187(2) B188(3) B189(3) B190(2) B191(3) B192(2) B193(3) B194(3)
 B195(3) B196(3) B197(2) B198(2) B199(2) B200(3) B201(3) B202(3) B203(2) B204(3) B205(2) B206(3) B207(2)
 B208(2) B209(2) B210(3) B211(2) B212(3) B213(3) B214(3) B215(3) B216(3) B217(4) B218(3) B219(3) B220(3)
 B221(4) B222(3) B223(3) B224(3) B225(3) B226(3) B227(4) B228(2) B229(2) B230(3) B231(3) B232(3) B233(2)
 B234(2) B235(3) B236(3) B237(2) B238(3) B239(2) B240(3) B241(2) B242(2) B243(2) B244(3) B245(2) B246(3)
 B247(3) B248(2) B249(3) B250(2) B251(3) B252(3) B253(3) B254(3) B255(3) B256(3) B257(3) B258(2) B259(3)
 B260(3) B261(3) B262(2) B263(3) B264(3) B265(3) B266(3) B267(4) B268(3) B269(3) B270(3) B271(2) B272(3)
 B273(3) B274(3) B275(2) B276(2) B277(3) B278(3) B279(3) B280(2) B281(2) B282(3) B283(3) B284(2) B285(2)
 B286(3) B287(3) B288(3) B289(3) B290(2) B291(3) B292(2) B293(3) B294(2) B295(2) B296(3) B297(2) B298(3)
 B299(2) B300(2) B301(3) B302(2) B303(3) B304(2) B305(2) B306(2) B307(2) B308(2) B309(2) B310(2) B311(2)
 B312(3) B313(3) B314(2) B315(4) B316(2) B317(3) B318(2) B319(3) B320(3) B321(2) B322(3) B323(2) B324(2)
 B325(3) B326(3) B327(2) B328(3) B329(2) B330(2) B331(2) B332(2) B333(3) B334(2) B335(2) B336(2) B337(2)
 B338(3) B339(2) B340(2) B341(3) B342(2) B343(2) B344(2) B345(2) B346(2) B347(2) B348(2) B349(2) B350(2)
 B351(2) B352(2) B353(2) B354(2) B355(3) B356(3) B357(3) B358(2) B359(3) B360(3) B361(3) B362(3) B363(4)
 B364(3) B365(3) B366(2) B367(3) B368(3) B369(3) B370(3) B371(3) B372(3) B373(2) B374(3) B375(3) B376(2)
 B377(3) B378(2) B379(2) B380(2) B381(2) B382(2) B383(2) B384(2) B385(3) B386(2) B387(3) B388(2) B389(2)
 B390(4) B391(3) B392(2) B393(3) B394(2) B395(3) B396(3) B397(3) B398(2) B399(2) B400(2) B401(3) B402(2)
 B403(2) B404(2) B405(3) B406(3) B407(3) B408(2) B409(2) B410(2) B411(2) B412(3) B413(2) B414(3) B415(3)
 B416(3) B417(2) B418(2) B419(3) B420(2) B421(2) B422(3) B423(2) B424(3) B425(3) B426(3) B427(3) B428(2)
 B429(2) B430(2) B431(3) B432(3) B433(3) B434(3) B435(2) B436(2) B437(3) B438(3) B439(3) B440(3) B441(2)
 B442(3) B443(2) B444(2) B445(3) B446(3) B447(3) B448(3) B449(3) B450(2) B451(3) B452(3) B453(3) B454(3)
 B455(3) B456(2) B457(3) B458(3) B459(3) B460(3) B461(2) B462(2) B463(3) B464(2) B465(2) B466(2) B467(3)
 B468(3) B469(3) B470(3) B471(3) B472(3) B473(3) B474(3) B475(2) B476(2) B477(2) B478(3) B479(3) B480(3)
 B481(3) B482(3) B483(3) B484(3) B485(3) B486(3) B487(3) B488(3) B489(3) B490(3) B491(3) B492(2) B493(3)
 B494(3) B495(3) B496(3) B497(3) B498(3) B499(3) B500(3) B501(2) B502(2) B503(3) B504(3) B505(2) B506(3)
 B507(3) B508(2) B509(2) B510(3) B511(3) B512(3) B513(3) B514(2) B515(3) B516(2) B517(2) B518(3) B519(3)
 B520(2) B521(2) B523(2)
End
